# Objective value = 1.9756563287481408e+03
x[0] 1
x[1] 1
x[2] 1
x[3] 1
x[4] 1
x[5] 1
x[6] 1
x[7] 1
x[8] 1
x[9] 1
x[10] 0
x[11] 1
x[12] 0
x[13] 1
x[14] 1
x[15] 0
x[16] 1
x[17] 1
x[18] 1
x[19] 0
x[20] 0
x[21] 1
x[22] 1
x[23] 0
x[24] 1
x[25] 1
x[26] 1
x[27] 0
x[28] 0
x[29] 1
x[30] 1
x[31] 1
x[32] 1
x[33] 1
x[34] 1
x[35] 0
x[36] 0
x[37] 0
x[38] 1
x[39] 0
x[40] 0
x[41] 0
x[42] 1
x[43] 1
x[44] 1
x[45] 1
x[46] 0
x[47] 1
x[48] 1
x[49] 0
x[50] 1
x[51] 1
x[52] 0
x[53] 1
x[54] 0
x[55] 0
x[56] 0
x[57] 1
x[58] 0
x[59] 1
x[60] 1
x[61] 0
x[62] 0
x[63] 1
x[64] 1
x[65] 1
x[66] 1
x[67] 1
x[68] 0
x[69] 1
x[70] 0
x[71] 1
x[72] 0
x[73] 1
x[74] 0
x[75] 0
x[76] 1
x[77] 0
x[78] 1
x[79] 0
x[80] 0
x[81] 1
x[82] 1
x[83] 0
x[84] 1
x[85] 1
x[86] 1
x[87] 1
x[88] 0
x[89] 1
x[90] 1
x[91] 1
x[92] 1
x[93] 0
x[94] 1
x[95] 1
x[96] 0
x[97] 0
x[98] 0
x[99] 0
x[100] 0
x[101] 1
x[102] 0
x[103] 1
x[104] 1
x[105] 1
x[106] 1
x[107] 0
x[108] 0
x[109] 0
x[110] 1
x[111] 0
x[112] 0
x[113] 0
x[114] 1
x[115] 1
x[116] 0
x[117] 1
x[118] 1
x[119] 0
x[120] 1
x[121] 0
x[122] 0
x[123] 0
x[124] 1
x[125] 1
x[126] 0
x[127] 1
x[128] 1
x[129] 0
x[130] 0
x[131] 1
x[132] 0
x[133] 0
x[134] 1
x[135] -1.0842021724855044e-19
x[136] 1
x[137] 1
x[138] 1
x[139] 1
x[140] 1
x[141] 0
x[142] 0
x[143] 0
x[144] 1
x[145] 0
x[146] 1
x[147] 1
x[148] 0
x[149] 0
x[150] 0
x[151] 0
x[152] 1
x[153] 0
x[154] 1
x[155] 1
x[156] 1
x[157] 0
x[158] 0
x[159] 0
x[160] 1
x[161] 1
x[162] 0
x[163] 1
x[164] 1
x[165] 0
x[166] 0
x[167] 1
x[168] 1
x[169] 0
x[170] 0
x[171] 0
x[172] 0
x[173] 0
x[174] 0
x[175] 0
x[176] 0
x[177] 1
x[178] 0
x[179] 1
x[180] 1
x[181] 0
x[182] 0
x[183] 1
x[184] 1
x[185] 0
x[186] 0
x[187] 0
x[188] 1
x[189] 1
x[190] 0
x[191] 0
x[192] 1
x[193] 1
x[194] 1
x[195] 1
x[196] 1
x[197] 1
x[198] 0
x[199] 1
x[200] 1
x[201] 1
x[202] 1
x[203] 0
x[204] 1
x[205] 1
x[206] 1
x[207] 1
x[208] 1
x[209] 1
x[210] 0
x[211] 1
x[212] 0
x[213] 0
x[214] 1
x[215] 1
x[216] 1
x[217] 0
x[218] 1
x[219] 1
x[220] 1
x[221] 1
x[222] 1
x[223] 1
x[224] 0
x[225] 0
x[226] 0
x[227] -1.0842021724855044e-19
x[228] 0
x[229] 1
x[230] 0
x[231] 1
x[232] 1
x[233] 1
x[234] 1
x[235] 1
x[236] 1
x[237] 0
x[238] 0
x[239] 1
x[240] 1
x[241] 1
x[242] 0
x[243] 0
x[244] 0
x[245] 1
x[246] 0
x[247] 1
x[248] 1
x[249] 0
x[250] 1
x[251] 1
x[252] 0
x[253] 1
x[254] 1
x[255] 1
x[256] 1
x[257] 1
x[258] 1
x[259] 0
x[260] 1
x[261] 0
x[262] 1
x[263] 0
x[264] 1
x[265] 0
x[266] 1
x[267] 0
x[268] 1
x[269] 1
x[270] 0
x[271] 0
x[272] 1
x[273] 0
x[274] 1
x[275] 1
x[276] 0
x[277] 1
x[278] 1
x[279] 0
x[280] 1
x[281] 1
x[282] 1
x[283] 0
x[284] 1
x[285] 1
x[286] 1
x[287] 1
x[288] 1
x[289] 1
x[290] 1
x[291] 1
x[292] 1
x[293] 1
x[294] 1
x[295] 1
x[296] 1
x[297] 0
x[298] 0
x[299] 0
x[300] 1
x[301] 1
x[302] 0
x[303] 0
x[304] 1
x[305] 1
x[306] 1
x[307] 0
x[308] 1
x[309] 1
x[310] 0
x[311] 1
x[312] 1
x[313] 1
x[314] 1
x[315] 1
x[316] 1
x[317] 1
x[318] 1
x[319] 0
x[320] 0
x[321] 0
x[322] 0
x[323] 1
x[324] 0
x[325] 1
x[326] 0
x[327] 0
x[328] 0
x[329] 0
x[330] 0
x[331] 1
x[332] 1
x[333] 1
x[334] 1
x[335] 1
x[336] 0
x[337] 1
x[338] 1
x[339] 0
x[340] 0
x[341] 0
x[342] 0
x[343] 0
x[344] 1
x[345] 1
x[346] 1
x[347] 1
x[348] 0
x[349] 1
x[350] 1
x[351] 0
x[352] 0
x[353] 0
x[354] 1
x[355] 1
x[356] 0
x[357] 0
x[358] 1
x[359] 1
x[360] 1
x[361] 0
x[362] 1
x[363] 1
x[364] 1
x[365] 1
x[366] 0
x[367] 0
x[368] 1
x[369] 1
x[370] 1
x[371] 0
x[372] 1
x[373] 0
x[374] 1
x[375] 1
x[376] 1
x[377] 1
x[378] 1
x[379] 1
x[380] 0
x[381] 1
x[382] 1
x[383] 0
x[384] 1
x[385] 1
x[386] 0
x[387] 1
x[388] 0
x[389] 0
x[390] 1
x[391] 0
x[392] 1
x[393] 0
x[394] 0
x[395] 1
x[396] 0
x[397] 0
x[398] 1
x[399] 1
x[400] 0
x[401] 0
x[402] 1
x[403] 1
x[404] 0
x[405] 1
x[406] 0
x[407] 1
x[408] 0
x[409] 1
x[410] 0
x[411] 0
x[412] 1
x[413] 0
x[414] 1
x[415] 1
x[416] 1
x[417] 0
x[418] 0
x[419] 1
x[420] 0
x[421] 1
x[422] 0
x[423] 1
x[424] 1
x[425] 1
x[426] 1
x[427] 0
x[428] 1
x[429] 1
x[430] 1
x[431] 1
x[432] 1
x[433] 0
x[434] 1
x[435] 1
x[436] 1
x[437] 0
x[438] 1
x[439] 1
x[440] 0
x[441] 1
x[442] 0
x[443] 1
x[444] 1
x[445] 0
x[446] 0
x[447] 0
x[448] 0
x[449] 1
x[450] 0
x[451] 0
x[452] 1
x[453] 0
x[454] 0
x[455] 1
x[456] 1
x[457] 1
x[458] 0
x[459] 0
x[460] 1
x[461] 1
x[462] 0
x[463] 0
x[464] 0
x[465] 1
x[466] 0
x[467] 1
x[468] 1
x[469] 0
x[470] 1
x[471] 1
x[472] 0
x[473] 0
x[474] 0
x[475] 0
x[476] 0
x[477] 1
x[478] 0
x[479] 1
x[480] 1
x[481] 0
x[482] 1
x[483] 1
x[484] 0
x[485] 1
x[486] 1
x[487] 0
x[488] 1
x[489] 0
x[490] 0
x[491] 0
x[492] 0
x[493] 1
x[494] 0
x[495] 1
x[496] 0
x[497] 1
x[498] 1
x[499] 0
x[500] 1
x[501] 0
x[502] 1
x[503] 1
x[504] 0
x[505] 1
x[506] 1
x[507] 0
x[508] 1
x[509] 0
x[510] 1
x[511] 1
x[512] 0
x[513] 0
x[514] 0
x[515] 0
x[516] 1
x[517] 0
x[518] 1
x[519] 0
x[520] 0
x[521] 1
x[522] 1
x[523] 0
x[524] 1
x[525] 0
x[526] 1
x[527] 1
x[528] 1
x[529] 0
x[530] 1
x[531] 1
x[532] 1
x[533] 0
x[534] 0
x[535] 1
x[536] 1
x[537] 0
x[538] 1
x[539] 1
x[540] 0
x[541] 1
x[542] 1
x[543] 0
x[544] 0
x[545] 0
x[546] 0
x[547] 1
x[548] 1
x[549] 0
x[550] 0
x[551] 1
x[552] 0
x[553] 0
x[554] 0
x[555] 1
x[556] 0
x[557] 1
x[558] 1
x[559] 1
x[560] 1
x[561] 1
x[562] 0
x[563] 0
x[564] 1
x[565] 1
x[566] 1
x[567] 1
x[568] 1
x[569] 1
x[570] 0
x[571] 0
x[572] 1
x[573] 0
x[574] 1
x[575] 1
x[576] 0
x[577] 0
x[578] 1
x[579] 1
x[580] 0
x[581] 1
x[582] 0
x[583] 0
x[584] 1
x[585] 0
x[586] 1
x[587] 0
x[588] 0
x[589] 0
x[590] 0
x[591] 0
x[592] 0
x[593] 0
x[594] 1
x[595] 1
x[596] 1
x[597] 1
x[598] 0
x[599] 0
x[600] 0
x[601] 0
x[602] 1
x[603] 1
x[604] 1
x[605] 1
x[606] 0
x[607] 0
x[608] 1
x[609] 1
x[610] 0
x[611] 1
x[612] 0
x[613] 1
x[614] 0
x[615] 1
x[616] 1
x[617] 1
x[618] 1
x[619] 1
x[620] 0
x[621] 1
x[622] 1
x[623] 1
x[624] 0
x[625] 1
x[626] 1
x[627] 0
x[628] 1
x[629] 1
x[630] 1
x[631] 1
x[632] 0
x[633] 1
x[634] 0
x[635] 1
x[636] 1
x[637] 0
x[638] 1
x[639] 1
x[640] 0
x[641] 0
x[642] 0
x[643] 0
x[644] 0
x[645] 1
x[646] 1
x[647] 1
x[648] 1
x[649] 0
x[650] 1
x[651] 0
x[652] 1
x[653] 0
x[654] 0
x[655] 0
x[656] 0
x[657] 1
x[658] 1
x[659] 1
x[660] 1
x[661] 0
x[662] 0
x[663] 1
x[664] 0
x[665] 0
x[666] 1
x[667] 1
x[668] 0
x[669] 1
x[670] 0
x[671] 1
x[672] 0
x[673] 1
x[674] 1
x[675] 1
x[676] 0
x[677] 1
x[678] 0
x[679] 1
x[680] 0
x[681] 0
x[682] 1
x[683] 1
x[684] 1
x[685] 0
x[686] 1
x[687] 1
x[688] 0
x[689] 1
x[690] 0
x[691] 1
x[692] 1
x[693] 0
x[694] 1
x[695] 1
x[696] 1
x[697] 1
x[698] 1
x[699] 0
x[700] 1
x[701] 0
x[702] 1
x[703] 1
x[704] 1
x[705] 1
x[706] 0
x[707] 0
x[708] 1
x[709] 1
x[710] 1
x[711] 0
x[712] 1
x[713] 0
x[714] 0
x[715] 0
x[716] 0
x[717] 0
x[718] 1
x[719] 1
x[720] 0
x[721] 0
x[722] 1
x[723] 1
x[724] 0
x[725] 1
x[726] 0
x[727] 1
x[728] 0
x[729] 0
x[730] 1
x[731] 1
x[732] 1
x[733] 1
x[734] 0
x[735] 0
x[736] 0
x[737] 1
x[738] 1
x[739] 1
x[740] 0
x[741] 1
x[742] 1
x[743] 0
x[744] 1
x[745] 1
x[746] 0
x[747] 0
x[748] 0
x[749] 1
x[750] 0
x[751] 0
x[752] 1
x[753] 1
x[754] 0
x[755] 1
x[756] 1
x[757] 1
x[758] 0
x[759] 0
x[760] 0
x[761] 1
x[762] 1
x[763] 0
x[764] 0
x[765] 1
x[766] 1
x[767] 1
x[768] 1
x[769] 0
x[770] 1
x[771] 1
x[772] 1
x[773] 1
x[774] 1
x[775] 1
x[776] 0
x[777] 0
x[778] 0
x[779] 1
x[780] 0
x[781] 0
x[782] 0
x[783] 1
x[784] 0
x[785] 1
x[786] 0
x[787] 1
x[788] 0
x[789] 1
x[790] 0
x[791] 1
x[792] 0
x[793] 0
x[794] 0
x[795] 1
x[796] 0
x[797] 1
x[798] 0
x[799] 1
x[800] 1
x[801] 1
x[802] 0
x[803] 1
x[804] 1
x[805] 0
x[806] 1
x[807] 1
x[808] 0
x[809] 1
x[810] 0
x[811] 1
x[812] 0
x[813] 1
x[814] 0
x[815] 1
x[816] 0
x[817] 0
x[818] 1
x[819] 0
x[820] 1
x[821] 0
x[822] 0
x[823] 0
x[824] 0
x[825] 0
x[826] 0
x[827] 0
x[828] 1
x[829] 1
x[830] 0
x[831] 0
x[832] 1
x[833] 0
x[834] 0
x[835] 0
x[836] 0
x[837] 1
x[838] 1
x[839] 1
x[840] 1
x[841] 1
x[842] 0
x[843] 0
x[844] 1
x[845] 1
x[846] 1
x[847] 0
x[848] 1
x[849] 0
x[850] 1
x[851] 0
x[852] 1
x[853] 1
x[854] 1
x[855] 0
x[856] 0
x[857] 0
x[858] 1
x[859] 1
x[860] 1
x[861] 0
x[862] 1
x[863] 0
x[864] 1
x[865] 0
x[866] 1
x[867] 0
x[868] 1
x[869] 1
x[870] 0
x[871] 0
x[872] 1
x[873] 1
x[874] 0
x[875] 1
x[876] 1
x[877] 0
x[878] 1
x[879] 1
x[880] 1
x[881] 1
x[882] 1
x[883] 1
x[884] 0
x[885] 1
x[886] 0
x[887] 1
x[888] 0
x[889] 0
x[890] 0
x[891] 1
x[892] 1
x[893] 1
x[894] 0
x[895] 1
x[896] 1
x[897] 0
x[898] 1
x[899] 1
x[900] 1
x[901] 1
x[902] 1
x[903] 0
x[904] 1
x[905] 0
x[906] 1
x[907] 0
x[908] 0
x[909] 1
x[910] 0
x[911] 1
x[912] 1
x[913] 0
x[914] 0
x[915] 1
x[916] 0
x[917] 0
x[918] 0
x[919] 0
x[920] 0
x[921] 0
x[922] 1
x[923] 1
x[924] 0
x[925] 1
x[926] 1
x[927] 1
x[928] 1
x[929] 1
x[930] 0
x[931] 0
x[932] 0
x[933] 0
x[934] 1
x[935] 0
x[936] 1
x[937] 0
x[938] 1
x[939] 0
x[940] 0
x[941] 0
x[942] 0
x[943] 1
x[944] 1
x[945] 0
x[946] 0
x[947] 0
x[948] 1
x[949] 1
x[950] 0
x[951] 0
x[952] 0
x[953] 0
x[954] 1
x[955] 1
x[956] 1
x[957] 0
x[958] 0
x[959] 1
x[960] 0
x[961] 1
x[962] 0
x[963] 1
x[964] 1
x[965] 1
x[966] 1
x[967] 1
x[968] 1
x[969] 1
x[970] 1
x[971] 0
x[972] 1
x[973] 1
x[974] 1
x[975] 0
x[976] 1
x[977] 1
x[978] 0
x[979] 1
x[980] 1
x[981] 1
x[982] 1
x[983] 1
x[984] 0
x[985] 1
x[986] 1
x[987] 1
x[988] 0
x[989] 1
x[990] 1
x[991] 1
x[992] 0
x[993] 1
x[994] 1
x[995] 1
x[996] 1
x[997] 1
x[998] 1
x[999] 1
